Minimize
  obj: x0 + x1 + x2 + x3

Subject To
  c0: x0 + x1 = 38
  c1: x3 = 14
  c2: x0 + x2 + x3 = 45
  c3: x1 = 18
  c4: x0 + x1 + x2 + x3 = 63

Bounds
  x0 >= 0
  x1 >= 0
  x2 >= 0
  x3 >= 0

Generals
  x0 x1 x2 x3

End
